; benchmark generated from python API
(set-info :status unknown)
(declare-fun S_4 () Real)
(declare-fun S_5 () Real)
(declare-fun C () Real)
(declare-fun S_3 () Real)
(declare-fun A_0 () Real)
(declare-fun S_0 () Real)
(declare-fun L_0 () Real)
(declare-fun S_1 () Real)
(declare-fun L0 () Real)
(declare-fun B () Real)
(declare-fun S_2 () Real)
(declare-fun L_1 () Real)
(declare-fun A_2 () Real)
(declare-fun A_3 () Real)
(declare-fun A_1 () Real)
(declare-fun L_3 () Real)
(declare-fun L_2 () Real)
(declare-fun A_4 () Real)
(declare-fun A_5 () Real)
(assert
 (let (($x42 (>= L0 0.0)))
 (let (($x927 (>= C 5.0)))
 (let (($x837 (>= B 5.0)))
 (let (($x18094 (<= 0.0 (+ (* (- 4.0) C) (* (- 1.0) B) (* (- 1.0) S_1) S_5))))
 (let (($x18168 (<= 0.0 (+ (* (- 1.0) C) (* (- 1.0) B) S_5 (* (- 1.0) S_4)))))
 (let (($x18106 (<= 0.0 (+ (* (- 2.0) C) (* (- 1.0) B) (* (- 1.0) S_3) S_5))))
 (let (($x18050 (<= 0.0 (+ (* (- 4.0) C) (* (- 1.0) B) L_0 S_5 (* (- 1.0) A_0)))))
 (let (($x18081 (<= 0.0 (+ (* (- 3.0) C) (* (- 1.0) B) S_5 (* (- 1.0) S_2)))))
 (let (($x18043 (<= 0.0 (+ (* (- 5.0) C) (* (- 1.0) B) (* (- 1.0) S_0) S_5))))
 (let ((?x389 (* (- 1.0) L_1)))
 (let ((?x15423 (+ A_2 ?x389 C)))
 (let (($x16757 (>= S_4 ?x15423)))
 (let (($x2641 (not (<= L_3 L_1))))
 (let (($x2319 (>= S_4 (+ A_3 ?x389))))
 (let (($x27963 (or $x2319 $x2641 (<= (+ (* 2.0 C) S_1 (* (- 1.0) S_4)) 0.0) $x16757)))
 (let ((?x1060 (+ A_2 ?x389)))
 (let (($x2316 (>= S_3 ?x1060)))
 (let (($x28076 (or $x2316 (<= (+ C A_1 (* (- 1.0) L_0) (* (- 1.0) S_3)) 0.0) (<= (+ (* 2.0 C) S_0 (* (- 1.0) S_3)) 0.0))))
 (let (($x17104 (<= 0.0 (+ C (* (- 1.0) A_1) L_0 S_0))))
 (let (($x17631 (not $x17104)))
 (let (($x15735 (<= (+ A_2 (* (- 1.0) A_1) (* (- 1.0) C)) 0.0)))
 (let (($x15946 (not $x15735)))
 (let (($x15943 (<= (+ A_3 (* (- 1.0) L_3) C) S_5)))
 (let (($x28217 (or $x15943 $x15946 (<= 0.0 (+ (* (- 2.0) C) (* (- 1.0) A_2) L_0 S_5)) $x17631)))
 (let (($x17476 (<= (+ (* 2.0 C) A_1 (* (- 1.0) L_0) (* (- 1.0) S_4)) 0.0)))
 (let (($x28038 (or $x2319 $x2641 $x16757 (<= (+ (* 3.0 C) S_0 (* (- 1.0) S_4)) 0.0) $x17476)))
 (let (($x17746 (<= 0.0 (+ (* (- 1.0) B) (* (- 3.0) C) (* (- 1.0) A_1) L_0 S_5))))
 (let (($x16445 (<= 0.0 (+ (* (- 2.0) C) (* (- 1.0) A_2) L_2 S_5))))
 (let (($x17634 (or $x16445 $x15943 (<= (+ (* 3.0 C) S_1 (* (- 1.0) S_5)) 0.0))))
 (let (($x27266 (or $x15735 $x15943 (<= (+ A_1 (* (- 1.0) L_0) (* 3.0 C)) S_5) $x17631)))
 (let (($x27828 (or $x15943 $x16445 $x17104 (<= (+ (* 4.0 C) S_0 (* (- 1.0) S_5)) 0.0))))
 (let (($x19269 (or (<= (+ A_1 (* (- 1.0) L_0) (* (- 1.0) S_2)) 0.0) (<= (+ C S_0 (* (- 1.0) S_2)) 0.0))))
 (let (($x69 (= L_2 L_1)))
 (let (($x17157 (or $x69 (<= (+ (* (- 3.0) C) (* (- 1.0) A_2) L_2 B S_5) 0.0))))
 (let (($x16846 (<= (+ C A_2 (* (- 1.0) L_2) (* (- 1.0) B) (* (- 1.0) S_4)) 0.0)))
 (let (($x2397 (not (= L_1 L_3))))
 (let ((?x566 (* (- 1.0) L_3)))
 (let ((?x599 (* (- 1.0) A_1)))
 (let ((?x1299 (* (- 2.0) C)))
 (let ((?x638 (* (- 1.0) B)))
 (let (($x27187 (or (not (<= (+ A_1 (* (- 1.0) L_0)) (+ ?x638 ?x566 A_3 ?x1299))) (= (+ ?x638 A_3 ?x1299 ?x599 L_0 ?x566) 0.0))))
 (let ((?x268 (* (- 1.0) C)))
 (let ((?x16267 (+ ?x638 ?x566 A_3 ?x268)))
 (let (($x16359 (<= (+ A_2 (* (- 1.0) L_0)) ?x16267)))
 (let (($x19608 (or (not $x16359) (= (+ A_3 ?x566 ?x638) (+ A_2 (* (- 1.0) L_0) C)))))
 (let (($x27926 (or (not (<= (+ A_2 (* (- 1.0) L_2)) (+ A_1 ?x389 ?x638 C))) $x15943 $x16445)))
 (let ((?x16319 (+ ?x638 ?x566 A_3 ?x1299)))
 (let ((?x698 (* (- 1.0) L_0)))
 (let ((?x1043 (+ A_1 ?x698)))
 (let (($x16333 (<= ?x1043 ?x16319)))
 (let (($x2770 (= L_3 L_1)))
 (let (($x2385 (not (= L_1 L_2))))
 (let (($x986 (not (<= L_1 L_0))))
 (let (($x27249 (or $x986 $x2385 $x2770 $x16333 $x16359 (<= S_0 (+ ?x638 ?x566 A_3 (* (- 3.0) C))))))
 (let (($x2902 (not (= L_2 L_3))))
 (let (($x59 (= L_1 L_0)))
 (let (($x20184 (or $x59 $x2902 (<= (+ A_3 (* (- 1.0) L_2) ?x599 L_1 ?x1299) 0.0))))
 (let (($x15772 (<= A_2 (+ A_1 ?x638 C))))
 (let ((?x259 (+ A_1 ?x389 ?x638 C)))
 (let (($x440 (<= (+ A_2 (* (- 1.0) L_2)) ?x259)))
 (let (($x27278 (or $x440 (>= S_4 (+ A_1 ?x389 ?x638 (* 2.0 C))) (<= (+ A_3 (* (- 1.0) L_2)) (+ A_1 ?x389 ?x638 (* 2.0 C))))))
 (let (($x5543 (= L_3 L_0)))
 (let (($x1932 (not (= L_0 L_2))))
 (let (($x27753 (or $x1932 $x5543 (<= (+ A_1 ?x698 L_3 (* (- 1.0) A_3) (* 2.0 C)) 0.0) $x16359)))
 (let (($x16476 (<= (+ (* 2.0 C) A_2 (* (- 1.0) L_2) ?x638 (* (- 1.0) S_5)) 0.0)))
 (let (($x991 (not (<= L_3 L_2))))
 (let (($x27946 (or $x986 $x2385 $x2770 (<= (+ A_2 ?x698 L_3 (* (- 1.0) A_3) C) 0.0))))
 (let (($x20530 (or (not (<= ?x1043 (+ ?x638 (* (- 1.0) L_2) A_2 ?x268))) (= (+ ?x268 A_2 (* (- 1.0) L_2) ?x638 ?x599 L_0) 0.0))))
 (let (($x2540 (= L_2 L_0)))
 (let (($x1331 (not (= L_0 L_1))))
 (let (($x15532 (or $x1331 $x2540 (<= (+ A_1 ?x698 L_2 (* (- 1.0) A_2) C) 0.0))))
 (let ((?x385 (* (- 1.0) L_2)))
 (let ((?x16050 (+ ?x638 ?x385 A_2 ?x268)))
 (let (($x16241 (<= ?x1043 ?x16050)))
 (let (($x79 (= L_3 L_2)))
 (let (($x27966 (or $x59 $x79 $x440 (= (+ A_3 ?x566) (+ A_1 ?x389 (* 2.0 C))))))
 (let (($x41 (>= L_0 L0)))
 (let (($x131 (>= S_1 S_0)))
 (let (($x134 (>= S_2 S_1)))
 (let (($x137 (>= S_3 S_2)))
 (let (($x140 (>= S_4 S_3)))
 (let (($x143 (>= S_5 S_4)))
 (let (($x145 (>= A_1 A_0)))
 (let (($x146 (>= A_2 A_1)))
 (let (($x147 (>= A_3 A_2)))
 (let (($x149 (>= A_5 A_4)))
 (and (<= (+ A_3 ?x566) S_5) $x149 $x147 $x146 $x145 $x143 $x140 $x137 $x134 $x131 $x41 (>= S_2 (+ A_1 ?x389 ?x638)) (or $x59 $x986) (or $x79 (<= S_4 (+ A_3 ?x566 ?x638 C))) (or $x59 (<= S_1 (+ A_1 ?x389 ?x638))) (or $x79 (<= S_3 (+ A_3 ?x566 ?x638))) (or $x69 (<= S_2 (+ A_2 ?x385 ?x638))) (not (<= (+ A_4 ?x566) S_5)) (>= S_0 (+ ?x638 ?x389 A_1 ?x1299)) (>= S_1 (+ ?x638 ?x389 A_1 ?x268)) (or $x440 (>= S_3 ?x259)) (>= S_5 (+ A_3 ?x566 ?x638 C)) (>= S_4 (+ A_3 ?x566 ?x638)) (>= S_3 (+ A_2 ?x385 ?x638)) (<= (+ ?x638 ?x389 A_1 ?x268) (+ A_0 ?x698)) (or $x79 (not $x15943)) (or $x2316 (not $x15772)) (or $x2770 (= (+ A_3 ?x566 ?x638) ?x15423) (not $x15772)) (or $x59 (<= S_0 (+ ?x638 ?x389 A_1 ?x268))) (or $x79 (<= S_5 (+ A_3 ?x566 ?x638 (* 2.0 C)))) (or $x69 (<= S_1 ?x16050)) (or $x59 $x69 (= L_2 (+ A_2 ?x599 L_1 ?x268))) (or $x59 (<= S_2 ?x259)) $x27966 (or (not (<= L_2 L_0)) $x2540) (or $x69 $x79 (= (+ A_3 ?x566) (+ A_2 ?x385 C))) (>= S_2 ?x16050) (or $x79 $x991) (or $x15946 $x69) (>= S_1 (+ ?x638 ?x385 A_2 ?x1299)) (<= (+ ?x638 ?x385 A_2 ?x1299) (+ A_0 ?x698)) (or $x69 (<= S_0 (+ ?x638 ?x385 A_2 ?x1299)) $x16241) (<= (+ ?x599 L_0 S_1) 0.0) $x15532 (>= S_0 (+ ?x638 ?x385 A_2 (* (- 3.0) C))) $x20530 (<= S_2 ?x1060) (or $x440 $x15943 (>= S_5 (+ A_1 ?x389 ?x638 (* 3.0 C)))) (or $x79 (<= S_2 ?x16267)) $x27946 (or $x59 $x2385 $x15735) (or $x69 $x991 (<= (+ ?x268 A_3 (* (- 1.0) A_2)) 0.0)) (or $x69 (not $x16445)) (or $x15943 $x16476) (>= S_3 ?x16267) $x27753 (or $x986 $x2385 $x2770 $x16359 (<= S_1 ?x16319)) (or $x59 (<= S_5 (+ A_1 ?x389 ?x638 (* 4.0 C)))) (or $x59 (<= S_3 (+ A_1 ?x389 ?x638 (* 2.0 C)))) (or $x59 (<= S_4 (+ A_1 ?x389 ?x638 (* 3.0 C)))) (>= S_2 ?x16319) (<= (+ ?x638 ?x566 A_3 (* (- 3.0) C)) (+ A_0 ?x698)) (>= S_1 (+ ?x638 ?x566 A_3 (* (- 3.0) C))) $x27278 (or $x2319 $x2397 $x15772 (not (<= A_3 (+ A_1 ?x638 (* 2.0 C))))) $x20184 (or $x59 (not (<= (+ A_1 ?x389 (* 3.0 C)) S_5))) $x27249 $x27926 (or $x2319 (not $x15772) $x16757) (or $x69 (<= (+ ?x1299 (* (- 1.0) A_2) L_2 B S_4) 0.0)) (<= S_3 (+ A_3 ?x385)) (or $x69 (<= (+ ?x268 (* (- 1.0) A_2) L_2 B S_3) 0.0)) (>= S_0 (+ ?x638 ?x566 A_3 (* (- 4.0) C))) $x19608 $x27187 (or $x2397 (<= (+ A_3 (* (- 1.0) A_2) ?x268) B)) (or (>= S_4 (+ A_3 ?x385)) $x16846) (<= S_4 (+ A_3 ?x385 C)) $x17157 $x19269 (or $x15943 (<= (+ (* 2.0 C) (* (- 1.0) S_5) S_2) 0.0)) (or $x2316 (<= (+ C S_1 (* (- 1.0) S_3)) 0.0)) (<= (+ (* (- 4.0) C) (* (- 1.0) S_0) S_3) 0.0) (<= (+ ?x268 ?x599 L_0 S_2) 0.0) $x27828 $x27266 $x17634 (<= (+ ?x1299 (* (- 1.0) S_1) S_2) 0.0) (<= (+ (* (- 3.0) C) (* (- 1.0) S_1) S_3) 0.0) (<= S_3 ?x15423) (<= (+ ?x1299 ?x599 S_3 L_0) 0.0) (not $x17746) (<= (+ (* (- 3.0) C) ?x599 L_0 S_4) 0.0) (<= (+ ?x1299 L_0 S_2 (* (- 1.0) A_0)) 0.0) (<= (+ (* (- 3.0) C) (* (- 1.0) S_0) S_2) 0.0) (<= (+ (* (- 4.0) C) L_0 S_4 (* (- 1.0) A_0)) 0.0) (<= (+ (* (- 5.0) C) (* (- 1.0) S_0) S_4) 0.0) (<= (+ (* (- 3.0) C) L_0 S_3 (* (- 1.0) A_0)) 0.0) (<= (+ ?x1299 S_3 (* (- 1.0) S_2)) 0.0) (not (<= (+ A_3 ?x385 C B) S_5)) $x28038 (<= S_4 (+ A_2 ?x389 (* 2.0 C))) $x28217 (<= (+ (* (- 4.0) C) (* (- 1.0) S_1) S_4) 0.0) (<= (+ (* (- 3.0) C) S_4 (* (- 1.0) S_2)) 0.0) (or $x2319 $x2641 (<= (+ C (* (- 1.0) S_4) S_2) 0.0)) $x28076 $x27963 (not $x18043) (not $x18081) (not $x18050) (not (<= (+ A_2 ?x389 (* 2.0 C) B) S_5)) (not $x18106) (not $x18168) (not $x18094) (<= (+ (* (- 4.0) C) ?x599 L_0 S_5) 0.0) (<= S_5 (+ A_3 ?x389 (* 2.0 C))) (<= (+ (* (- 5.0) C) L_0 S_5 (* (- 1.0) A_0)) 0.0) (<= (+ (* (- 5.0) C) (* (- 1.0) S_1) S_5) 0.0) (<= S_5 (+ A_2 ?x389 (* 3.0 C))) (<= (+ (* (- 3.0) C) (* (- 1.0) S_3) S_5) 0.0) (<= (+ (* (- 6.0) C) (* (- 1.0) S_0) S_5) 0.0) (<= (+ (* (- 4.0) C) S_5 (* (- 1.0) S_2)) 0.0) $x837 $x927 $x42 (<= (+ ?x268 L_0 S_1 (* (- 1.0) A_0)) 0.0) (<= (+ ?x1299 S_1 (* (- 1.0) S_0)) 0.0) (<= (+ L_0 S_0 (* (- 1.0) A_0)) 0.0) (<= (+ C S_3 (* (- 1.0) S_5)) 0.0) (<= (+ ?x1299 (* (- 1.0) S_3) S_4) 0.0) (<= (+ ?x1299 S_5 (* (- 1.0) S_4)) 0.0)))))))))))))))))))))))))))))))))))))))))))))))))))))))))))))))))))))))))))))))))))))))))
(check-sat)
